set NODES := 1 2 3 4 5 6 7 8 9 10 11 12 13 14;
set LINKS := 
    1 2	 
    2 1	
    2 3
    3 2	
    1 3
    3 1	
    1 4	 
    4 1	
    2 8	  
    8 2	
    3 7	  
    7 3	
    4 9	  
    9 4	
    4 5	  
    5 4
    5 6		
    6 5	
    5 7	  
    7 5	
    6 8	  
    8 6	
    7 10  
    10 7	
    7 13  
    13 7
    8 11  
    11 8	
    9 12  
    12 9	
    9 14  
    14 9
    10 11 
    11 10	
    11 12 
    12 11	
    11 14 
    14 11	
    13 14 
    14 13	
    12 13 
    13 12
;
param Cp := 
   1 2	1 
    2 1	1
    2 3 1
    3 2	1
    1 3 1
    3 1	1
    1 4	  1
    4 1	1
    2 8	 1 
    8 2	1
    3 7	 1 
    7 3	1
    4 9	 1 
    9 4	1
    4 5	 1 
    5 4 1
    5 6 1
    6 5	1
    5 7	 1 
    7 5	 1
    6 8	  1
    8 6	 1
    7 10  1
    10 7 1
    7 13  1
    13 7 1
    8 11  1
    11 8	1
    9 12  1
    12 9	1
    9 14  1
    14 9 1
    10 11 1
    11 10	1
    11 12 1
12 11	1
11 14 1
14 11	1
13 14 1
14 13	1
12 13 1
13 12 1
;
